StringID          Type       x          y          demand     ReadyTime  DueDate    ServiceTime wp1 wp2 wp3 wp4  wp5 wp6 wp7 wp8  wp9 wp10 wp11 wp12 wp13 wp14 wp15 wp16 wp17 wp18 wp19 wp20 wp21
Jacksonville      d          30.3361    -81.6598   0.0        0.0        1236.0     0.0         6   7   8   9    10  11  12  13   14  15   16   17   18   19   20   21   22   23   24   1    2 
SRestAreaMM413    f          30.0161    -82.5565   0.0        0.0        1236.0     0.0         0.2 0.3 0.4 0.5  0.6 0.7 0.8 0.9  0.8 0.7  0.6  0.4  0.3  0.1  0    0    0    0    0    0    0
SFortDSerPlaza    f          27.6370    -80.8202   0.0        0.0        1236.0     0.0         0.2 0.3 0.4 0.5  0.6 0.7 0.8 0.9  0.8 0.7  0.6  0.4  0.3  0.1  0    0    0    0    0    0    0
SRestAreaMM307    f          28.5850    -82.2122   0.0        0.0        1236.0     0.0         0.1 0.1 0.2 0.3  0.3 0.4 0.4 0.45 0.4 0.4  0.3  0.2  0.1  0.1  0    0    0    0    0    0    0    
SI-95RestArea     f          28.801     -80.877    0.0        0.0        1236.0     0.0         0.0 0.0 0.1 0.15 0.2 0.2 0.2 0.25 0.2 0.2  0.1  0.1  0.0  0.0  0    0    0    0    0    0    0    
SPhilCreekStation f          27.3591    -82.5050   0.0        0.0        1236.0     0.0         0.2 0.3 0.4 0.5  0.6 0.7 0.8 0.9  0.8 0.7  0.6  0.4  0.3  0.1  0    0    0    0    0    0    0
SI-4RestAreaP     f          28.1777    -81.7663   0.0        0.0        1236.0     0.0         0.1 0.1 0.2 0.3  0.3 0.4 0.4 0.45 0.4 0.4  0.3  0.2  0.1  0.1  0    0    0    0    0    0    0    
SMonticelloI-10   f          30.4685    -83.7324   0.0        0.0        1236.0     0.0         0.2 0.3 0.4 0.5  0.6 0.7 0.8 0.9  0.8 0.7  0.6  0.4  0.3  0.1  0    0    0    0    0    0    0    
SBelleGladeSer    f          26.7946    -80.6506   0.0        0.0        1236.0     0.0         0.1 0.1 0.2 0.3  0.3 0.4 0.4 0.45 0.4 0.4  0.3  0.2  0.1  0.1  0    0    0    0    0    0    0   
SI-95NorRestArea  f          29.7029    -81.3270   0.0        0.0        1236.0     0.0         0.2 0.3 0.4 0.5  0.6 0.7 0.8 0.9  0.8 0.7  0.6  0.4  0.3  0.1  0    0    0    0    0    0    0
Orlando           c          28.5331	-81.363    6.0        127.0      547.0      10.0       
Tampa             c          28.0321    -82.4672   3.0        312.0      932.0      10.0       
Miami             c          25.8114    -80.1915   8.0        429.0      749.0      10.0       
Gainseville       c          29.6550    -82.3330   4.0        699.0      1119.0     10.0       
Tallahassee       c          30.4437    -84.2819   4.0        833.0      1236.0     10.0       
Fortmeyers        c          26.6443    -81.8756   5.0        410.0      1236.0     10.0       

F Vehicle fuel tank capacity /37.5/
Q Vehicle load capacity /36.00/
r fuel consumption rate /0.14/
g inverse refueling rate /0.5/
v average Velocity /1.0/